c SAT problem
p wcnf 379 956
1 60 -3120 0
1 60 61 0
1 75 -60 0
1 -90 3105 0
1 90 -3090 0
1 -105 -3075 0
1 -105 -3135 0
1 -3120 3121 0
1 -3120 90 0
1 3135 -105 0
1 3150 166 0
1 3150 -75 0
1 -3150 -121 0
1 -3165 -3166 0
1 120 -3120 0
1 -120 3135 0
1 135 -3105 0
1 -135 -3075 0
1 135 -136 0
1 135 120 0
1 -135 3135 0
1 150 -3015 0
1 -150 3120 0
1 -150 -3090 0
1 150 -3030 0
1 150 -3000 0
1 -165 3105 0
1 -3060 -225 0
1 -3060 195 0
1 -3060 -165 0
1 -3060 150 0
1 3075 -3076 0
1 -3075 135 0
1 -3075 -240 0
1 3075 -210 0
1 3090 -135 0
1 3090 150 0
1 3090 -255 0
1 -3105 3106 0
1 -3105 -150 0
1 195 196 0
1 195 -3060 0
1 210 3075 0
1 225 -210 0
1 -225 -3000 0
1 3000 210 0
1 3000 -315 0
1 3015 210 0
1 -3015 180 0
1 -3015 315 0
1 3030 -225 0
1 -3030 -195 0
1 3030 270 0
1 3030 -240 0
1 -3030 255 0
1 -3045 -210 0
1 -3045 -315 0
1 61 3330 0
1 91 -90 0
1 106 -3240 0
1 3300 -166 0
1 -3300 3315 0
1 3300 -61 0
1 -3315 106 0
1 3315 -182 0
1 3315 -121 0
1 -3330 -106 0
1 -3330 182 0
1 -3330 -152 0
1 3345 167 0
1 3345 -3346 0
1 3345 122 0
1 3345 61 0
1 -136 -135 0
1 -136 -3285 0
1 136 3165 0
1 -151 3255 0
1 166 3255 0
1 166 -3240 0
1 -166 -3180 0
1 -166 3285 0
1 166 151 0
1 166 -3195 0
1 -3240 -256 0
1 -3240 -3255 0
1 -3240 -226 0
1 -3240 166 0
1 3240 -106 0
1 3255 226 0
1 3255 -196 0
1 -3255 166 0
1 -3255 181 0
1 -3255 121 0
1 3270 -227 0
1 -3270 -197 0
1 3270 -3285 0
1 3270 -121 0
1 -181 196 0
1 -181 -3135 0
1 196 -197 0
1 196 -3165 0
1 211 -3136 0
1 -211 -3255 0
1 -211 -3225 0
1 211 3166 0
1 226 227 0
1 226 3210 0
1 226 3151 0
1 -226 211 0
1 -3180 166 0
1 -3180 270 0
1 3195 -316 0
1 3210 3211 0
1 -3210 -211 0
1 3210 -151 0
1 -3210 -316 0
1 -3225 -256 0
1 3225 316 0
1 240 3180 0
1 -240 3151 0
1 240 -3090 0
1 -240 -3166 0
1 255 240 0
1 255 -3121 0
1 -255 -3060 0
1 -270 3136 0
1 270 -3106 0
1 270 3180 0
1 270 -271 0
1 -270 -3195 0
1 -3121 -255 0
1 3136 -3137 0
1 3136 -300 0
1 3136 240 0
1 -3136 -345 0
1 -3136 -285 0
1 3151 226 0
1 -3151 -240 0
1 -3151 -346 0
1 -3166 331 0
1 3166 -346 0
1 300 3121 0
1 300 3030 0
1 315 3106 0
1 315 -3076 0
1 -315 3121 0
1 -315 -3091 0
1 -315 -316 0
1 345 3076 0
1 -3061 420 0
1 3061 -300 0
1 3061 270 0
1 -3061 -285 0
1 3076 3077 0
1 3076 330 0
1 3076 -315 0
1 -3076 285 0
1 -3091 -3106 0
1 3091 391 0
1 3091 -3090 0
1 3091 -406 0
1 3091 -376 0
1 -3091 315 0
1 -3106 -361 0
1 -3106 -300 0
1 375 -3016 0
1 -390 405 0
1 405 -3046 0
1 -405 3016 0
1 405 -3001 0
1 3001 -390 0
1 -3001 360 0
1 3001 -330 0
1 -3001 345 0
1 3031 -390 0
1 -3031 -360 0
1 3031 465 0
1 -3046 -3045 0
1 3046 -405 0
1 3046 -375 0
1 62 -3525 0
1 3480 198 0
1 -3480 -3495 0
1 -3480 -137 0
1 3480 -107 0
1 -3480 77 0
1 -3495 3496 0
1 3510 3511 0
1 -3510 107 0
1 -3525 198 0
1 -3525 -77 0
1 3525 -153 0
1 -122 137 0
1 -122 -3465 0
1 -137 136 0
1 -152 167 0
1 -152 3375 0
1 -152 -153 0
1 152 3420 0
1 -152 -3390 0
1 167 3330 0
1 -167 3480 0
1 167 3435 0
1 3420 182 0
1 -3420 92 0
1 -3420 3421 0
1 3435 -3420 0
1 -3435 -152 0
1 -3435 -92 0
1 -3450 -137 0
1 -3450 -3465 0
1 3450 -152 0
1 3450 -122 0
1 -3465 -198 0
1 3465 3450 0
1 3465 -122 0
1 182 3360 0
1 182 -3330 0
1 182 3315 0
1 197 -3360 0
1 197 -3270 0
1 212 -3360 0
1 212 3301 0
1 -212 3375 0
1 -212 3420 0
1 -227 -3360 0
1 227 -226 0
1 227 -3331 0
1 227 3301 0
1 -227 -3270 0
1 -3360 3361 0
1 -3375 -302 0
1 3375 152 0
1 -3390 -257 0
1 3390 -167 0
1 3390 3405 0
1 3390 -242 0
1 -3405 212 0
1 -3405 3390 0
1 241 -256 0
1 -241 -3225 0
1 256 -3225 0
1 -271 3331 0
1 -286 -3271 0
1 -286 3241 0
1 286 -3286 0
1 -3301 256 0
1 3301 -3300 0
1 3301 241 0
1 -3316 -241 0
1 3316 3317 0
1 3331 -332 0
1 -3331 -241 0
1 -3331 -347 0
1 -3346 -227 0
1 -301 300 0
1 301 -3180 0
1 -301 3195 0
1 -316 3301 0
1 316 -301 0
1 316 315 0
1 -316 317 0
1 -331 -3226 0
1 331 -3316 0
1 346 -3151 0
1 -346 -3256 0
1 346 345 0
1 -346 -347 0
1 3256 -271 0
1 3256 376 0
1 3271 -3272 0
1 3271 -377 0
1 361 360 0
1 -361 3121 0
1 361 3091 0
1 361 -3226 0
1 376 3091 0
1 376 -3166 0
1 406 3241 0
1 -3181 -450 0
1 3181 -331 0
1 3181 465 0
1 3181 -406 0
1 3196 -481 0
1 -3196 -450 0
1 -3196 -331 0
1 -3196 -406 0
1 3196 346 0
1 -3211 421 0
1 -3211 3226 0
1 -3211 361 0
1 -3211 -3210 0
1 3211 -3212 0
1 3211 -436 0
1 3211 -406 0
1 3226 -3211 0
1 420 3137 0
1 420 3106 0
1 -420 3091 0
1 420 3196 0
1 -435 420 0
1 435 3152 0
1 435 436 0
1 435 -3196 0
1 450 3107 0
1 450 3077 0
1 450 -3181 0
1 -450 465 0
1 -450 -3122 0
1 -465 -3107 0
1 -465 3077 0
1 465 3181 0
1 -465 466 0
1 465 -3031 0
1 -3122 510 0
1 -3137 450 0
1 3137 -420 0
1 3137 391 0
1 3137 -541 0
1 3152 391 0
1 -3152 496 0
1 -3167 420 0
1 -3167 556 0
1 3167 -526 0
1 3167 -496 0
1 3167 -541 0
1 -480 3031 0
1 495 -3077 0
1 495 3046 0
1 510 -3017 0
1 -510 3122 0
1 510 -3092 0
1 -510 -3062 0
1 510 3002 0
1 -510 511 0
1 -525 -3137 0
1 -525 -3062 0
1 525 -510 0
1 3062 495 0
1 -3062 3061 0
1 3077 480 0
1 -3077 -450 0
1 3077 -585 0
1 3077 -525 0
1 3077 -495 0
1 -3092 586 0
1 -3092 -541 0
1 3107 615 0
1 -3107 -525 0
1 3107 -600 0
1 540 -555 0
1 555 3062 0
1 -555 -3002 0
1 585 3002 0
1 -3002 -585 0
1 -3002 -570 0
1 3017 570 0
1 -3017 -540 0
1 3032 -675 0
1 -3032 645 0
1 3047 -630 0
1 3047 -510 0
1 78 -3690 0
1 78 63 0
1 -93 3660 0
1 -108 -107 0
1 -108 3630 0
1 -108 3600 0
1 -3675 138 0
1 3690 -108 0
1 -3690 -78 0
1 -123 3660 0
1 123 -3675 0
1 -123 3615 0
1 138 -3525 0
1 138 3660 0
1 138 123 0
1 138 -3615 0
1 -153 -168 0
1 153 152 0
1 -153 3675 0
1 153 3645 0
1 -153 -3615 0
1 168 3660 0
1 -168 -3600 0
1 -3600 108 0
1 -3615 -123 0
1 3630 -168 0
1 -3630 3631 0
1 -3630 -123 0
1 3645 -138 0
1 -3645 -3630 0
1 -3645 153 0
1 -3645 123 0
1 183 -3585 0
1 -183 3480 0
1 183 -3615 0
1 -198 -3555 0
1 198 -3510 0
1 198 -3480 0
1 213 3585 0
1 213 3465 0
1 213 -3600 0
1 213 3481 0
1 -228 -3511 0
1 -3540 -168 0
1 3540 183 0
1 -3540 318 0
1 -3555 -303 0
1 3555 -272 0
1 3555 -242 0
1 -3555 -3540 0
1 3555 183 0
1 3585 -303 0
1 3585 213 0
1 242 3555 0
1 -242 -3496 0
1 -242 -3435 0
1 -257 -258 0
1 -257 3555 0
1 -257 -3526 0
1 257 3465 0
1 -257 3405 0
1 -257 -3390 0
1 -272 -3555 0
1 272 3526 0
1 -272 3421 0
1 287 -3405 0
1 -287 3451 0
1 -3481 302 0
1 3481 317 0
1 3496 -3497 0
1 -3496 363 0
1 3496 378 0
1 -3511 257 0
1 -3511 272 0
1 -3511 3512 0
1 -3526 257 0
1 3526 363 0
1 3526 -303 0
1 3526 272 0
1 -3526 213 0
1 302 3496 0
1 -302 -301 0
1 302 -3481 0
1 317 -302 0
1 -332 -3496 0
1 332 331 0
1 332 3391 0
1 -347 3331 0
1 347 -346 0
1 -3421 -392 0
1 3421 -332 0
1 3421 -407 0
1 3436 422 0
1 3436 377 0
1 -3436 347 0
1 3451 302 0
1 -3451 3450 0
1 -3451 408 0
1 -3466 -3467 0
1 -362 3331 0
1 -377 3361 0
1 -377 -3376 0
1 -392 3436 0
1 407 -3421 0
1 3361 -392 0
1 3361 3376 0
1 3361 -407 0
1 -3361 -347 0
1 3376 392 0
1 3376 497 0
1 -3376 -377 0
1 -3391 3392 0
1 3391 -452 0
1 3391 -362 0
1 -3391 3406 0
1 3391 -497 0
1 -3391 -377 0
1 3406 482 0
1 3406 -422 0
1 3406 -437 0
1 3406 -3391 0
1 421 -3302 0
1 -421 -436 0
1 421 -3226 0
1 436 3211 0
1 436 -3347 0
1 436 437 0
1 -436 -3317 0
1 -436 3226 0
1 -451 450 0
1 466 -3332 0
1 -466 -3376 0
1 -3302 -3301 0
1 3302 557 0
1 -3302 436 0
1 3302 3317 0
1 -3317 466 0
1 -3317 -436 0
1 -3332 -3331 0
1 3332 -392 0
1 -3347 482 0
1 3347 -497 0
1 3347 -3348 0
1 481 480 0
1 481 -482 0
1 481 3242 0
1 -481 -3317 0
1 481 3167 0
1 496 497 0
1 -496 3287 0
1 -511 -3302 0
1 511 3272 0
1 511 3212 0
1 511 3197 0
1 511 -510 0
1 526 527 0
1 526 3197 0
1 -3242 -3243 0
1 -3242 -526 0
1 3242 466 0
1 3257 481 0
1 3257 -556 0
1 3272 -451 0
1 -3272 -557 0
1 3287 587 0
1 -3287 526 0
1 541 -556 0
1 -541 3257 0
1 -541 -3227 0
1 541 540 0
1 556 557 0
1 -556 3152 0
1 571 -3168 0
1 571 3257 0
1 571 -572 0
1 -586 3138 0
1 586 3212 0
1 586 3182 0
1 -586 -3257 0
1 3182 645 0
1 3182 3183 0
1 3182 -630 0
1 -3197 615 0
1 -3197 -3198 0
1 3212 -646 0
1 -3212 601 0
1 -3227 556 0
1 -3227 541 0
1 -3227 -511 0
1 -600 -3092 0
1 -600 -3062 0
1 615 -3168 0
1 615 3077 0
1 -615 3197 0
1 630 -3168 0
1 630 -3123 0
1 -645 -3138 0
1 645 -3032 0
1 3123 -615 0
1 -3138 -675 0
1 3138 -586 0
1 3138 721 0
1 3153 -600 0
1 -3168 -736 0
1 -3168 3167 0
1 675 -3047 0
1 -690 3093 0
1 690 3003 0
1 705 3123 0
1 -3063 3062 0
1 3078 -705 0
1 3078 -720 0
1 -3093 675 0
1 3093 -630 0
1 -720 3078 0
1 -720 721 0
1 -720 3003 0
1 735 -3048 0
1 -750 -3078 0
1 750 -751 0
1 -765 3078 0
1 765 -3018 0
1 765 -750 0
1 3003 -3002 0
1 3003 735 0
1 -3018 690 0
1 -3033 705 0
1 3048 705 0
1 -243 -3585 0
1 243 3706 0
1 -258 3585 0
1 -258 -3661 0
1 -258 3570 0
1 258 3645 0
1 -258 3615 0
1 -273 3691 0
1 273 3676 0
1 288 -3661 0
1 288 -3570 0
1 3661 -288 0
1 3661 333 0
1 -3661 -318 0
1 3676 288 0
1 -3676 -333 0
1 -3691 3706 0
1 -3706 288 0
1 -303 -3646 0
1 303 -3661 0
1 318 -3585 0
1 318 -303 0
1 -318 3540 0
1 318 -3676 0
1 333 -3526 0
1 -333 -348 0
1 -333 -3646 0
1 -348 3511 0
1 348 -3646 0
1 3601 -333 0
1 -3601 -303 0
1 -3601 -3600 0
1 3601 -3602 0
1 3601 -318 0
1 -3616 3617 0
1 -3616 -303 0
1 -3616 273 0
1 -3616 -378 0
1 3616 318 0
1 -3631 -288 0
1 -3631 423 0
1 3631 3646 0
1 3646 -3631 0
1 3646 -273 0
1 363 -3616 0
1 -363 3571 0
1 363 3481 0
1 378 -3526 0
1 -378 3601 0
1 378 3451 0
1 -378 -3571 0
1 -378 377 0
1 393 3512 0
1 -408 -3527 0
1 408 3541 0
1 -3541 -483 0
1 3541 -3556 0
1 -3541 363 0
1 3556 483 0
1 -3556 333 0
1 -3556 408 0
1 3571 -3586 0
1 3571 -423 0
1 -3586 483 0
1 3586 453 0
1 -3586 -393 0
1 -3586 408 0
1 -422 3466 0
1 422 -3391 0
1 437 -3527 0
1 -437 3497 0
1 437 -3421 0
1 437 -3391 0
1 -452 -3497 0
1 -452 -3406 0
1 452 3512 0
1 -452 -3452 0
1 452 -3391 0
1 -467 3556 0
1 -467 -3406 0
1 467 -468 0
1 3482 452 0
1 -3497 482 0
1 -3497 -558 0
1 3497 -437 0
1 3527 3526 0
1 -3527 393 0
1 3527 -528 0
1 3527 -498 0
1 482 -3332 0
1 482 3497 0
1 -497 482 0
1 -497 3437 0
1 -497 498 0
1 497 -3391 0
1 -512 3362 0
1 -512 -3332 0
1 512 -3437 0
1 512 -3377 0
1 -512 -3422 0
1 -527 3467 0
1 527 3422 0
1 3422 -452 0
1 -3422 -587 0
1 -3422 467 0
1 3422 3423 0
1 3437 -557 0
1 -3437 3438 0
1 3437 -572 0
1 -3452 -497 0
1 -3467 -617 0
1 3467 3468 0
1 3467 -527 0
1 -557 3362 0
1 -557 3437 0
1 -557 3377 0
1 -557 3317 0
1 -572 -587 0
1 -572 571 0
1 587 3437 0
1 -587 -3318 0
1 3362 -3361 0
1 3362 587 0
1 3362 -3377 0
1 3377 3376 0
1 3392 512 0
1 -3392 587 0
1 -3392 -602 0
1 3392 572 0
1 -3392 3391 0
1 3407 3392 0
1 -3407 -587 0
1 3407 -557 0
1 -3407 -662 0
1 -601 3333 0
1 601 -3303 0
1 -601 600 0
1 616 -617 0
1 -616 3242 0
1 631 3318 0
1 631 3227 0
1 646 3348 0
1 -3303 -676 0
1 3303 587 0
1 3303 722 0
1 3303 -631 0
1 3303 601 0
1 3333 -587 0
1 -3348 616 0
1 -3348 587 0
1 3348 3347 0
1 661 3303 0
1 661 3212 0
1 661 3288 0
1 -661 3197 0
1 676 -3258 0
1 691 3183 0
1 706 707 0
1 -706 -3243 0
1 3243 736 0
1 3273 3272 0
1 3273 3288 0
1 3288 676 0
1 3288 661 0
1 3288 767 0
1 -721 -736 0
1 -721 -3168 0
1 -721 3138 0
1 721 -3183 0
1 -721 3258 0
1 721 3198 0
1 736 3093 0
1 751 -3183 0
1 751 766 0
1 -766 -751 0
1 3183 736 0
1 -3183 -706 0
1 -3183 -751 0
1 -3183 -721 0
1 3213 691 0
1 -3228 -706 0
1 -3228 -721 0
1 3228 -766 0
1 -423 3616 0
1 438 -3586 0
1 438 3692 0
1 438 437 0
1 -438 -3707 0
1 -438 3677 0
1 453 -3662 0
1 -453 -3707 0
1 -468 -3692 0
1 -468 -3571 0
1 3662 483 0
1 -3677 3662 0
1 -3677 3678 0
1 3692 -3693 0
1 -3707 438 0
1 3707 -3708 0
1 483 3677 0
1 -483 -3647 0
1 498 3617 0
1 -498 -3586 0
1 498 3632 0
1 -498 3571 0
1 513 -3542 0
1 -528 -513 0
1 528 527 0
1 -528 -3632 0
1 -528 -3542 0
1 528 -3647 0
1 -3602 513 0
1 -3602 3617 0
1 3602 -588 0
1 -3602 -543 0
1 3617 -588 0
1 3632 498 0
1 3632 468 0
1 -3632 3647 0
1 -3647 498 0
1 -3647 468 0
1 -3647 -603 0
1 558 3557 0
1 558 -3602 0
1 -558 -3572 0
1 558 -3542 0
1 -558 3482 0
1 573 -3587 0
1 -573 3572 0
1 588 3617 0
1 -588 -3557 0
1 -588 3498 0
1 588 -3572 0
1 -588 3542 0
1 588 3513 0
1 -3542 -647 0
1 3557 -678 0
1 3557 -3558 0
1 3557 -588 0
1 3557 -602 0
1 -3572 678 0
1 -3572 -528 0
1 -3572 633 0
1 -3572 603 0
1 -3587 513 0
1 -3587 -3586 0
1 3587 -618 0
1 -3587 588 0
1 -602 -617 0
1 602 3498 0
1 602 -3407 0
1 -602 3452 0
1 617 -3392 0
1 -617 -616 0
1 617 618 0
1 617 -3452 0
1 -632 3528 0
1 -632 3542 0
1 -632 -3483 0
1 647 3557 0
1 647 648 0
1 -647 -3423 0
1 -3483 -738 0
1 3483 -588 0
1 -3483 -632 0
1 -3483 602 0
1 -3498 -647 0
1 3513 -647 0
1 3513 -617 0
1 3513 -3528 0
1 -3513 723 0
1 3513 -693 0
1 -3513 -602 0
1 3528 678 0
1 3528 -3513 0
1 -3528 -602 0
1 -662 3348 0
1 677 -3333 0
1 -677 3468 0
1 677 662 0
1 -677 3423 0
1 -692 3438 0
1 707 -3333 0
1 -3423 752 0
1 -3438 722 0
1 -3468 -738 0
1 3468 -707 0
1 -3468 -647 0
1 3468 -723 0
1 3468 -692 0
1 3468 -632 0
1 722 -3288 0
1 752 3393 0
1 752 3363 0
1 752 3423 0
1 752 3408 0
1 -752 3288 0
1 767 -768 0
1 -3363 -737 0
1 3363 -707 0
1 3378 -3377 0
1 -3378 -692 0
1 -3393 -3392 0
1 3393 -692 0
1 3408 -3407 0
1 603 -3693 0
1 603 -3663 0
1 -603 3632 0
1 603 -3602 0
1 603 -3647 0
1 -618 3587 0
1 618 617 0
1 618 -3663 0
1 618 3572 0
1 618 3647 0
1 633 3663 0
1 633 3678 0
1 -648 647 0
1 648 -3603 0
1 -648 633 0
1 -3663 -3662 0
1 -3678 708 0
1 -3678 -618 0
1 -3678 3677 0
1 -3708 618 0
1 -663 3633 0
1 -663 -662 0
1 -663 -3542 0
1 678 -3648 0
1 -678 -677 0
1 678 3678 0
1 -693 -708 0
1 -693 -3588 0
1 -693 -3573 0
1 708 3558 0
1 -708 693 0
1 708 -3543 0
1 -708 -3678 0
1 3603 753 0
1 -3603 -693 0
1 -3603 -663 0
1 3618 -738 0
1 -3618 693 0
1 3618 -633 0
1 3633 -648 0
1 3633 693 0
1 3648 -3633 0
1 -3648 693 0
1 -723 -3573 0
1 -723 3513 0
1 738 3618 0
1 738 723 0
1 -738 3513 0
1 -738 3483 0
1 753 -768 0
1 -753 -3558 0
1 -753 -3573 0
1 -753 3543 0
1 768 -3453 0
1 -768 767 0
1 3543 3542 0
1 -3558 753 0
1 3558 723 0
1 3573 708 0
1 -3573 -753 0
1 3573 -723 0
